CST04
Position Depot: Random
Horizon for Depot: Small
Position of customers: Cluster
Distribution of the demand: Small
Width of time windows: Tight
Distribution of the service: Large

VEHICLE 
NUMBER 	 CAPACITY 
 6 	 	 125 
 
CUSTOMER
CUST NO. 	 XCOORD.  	 YCOORD. 	 DEMAND 	 READY TIME 	 DUE DATE 	 SERVICE TIME 
 0 	 	 442 	 	 862 	 	 0 	 	 0 	 	 2427 	 	 0 
  1 	 	 268 	 	 106 	 	 6 	 	 1282 	 	 1420 	 	 177 
  2 	 	 669 	 	 170 	 	 8 	 	 965 	 	 1165 	 	 175 
  3 	 	 363 	 	 270 	 	 6 	 	 465 	 	 656 	 	 108 
  4 	 	 598 	 	 339 	 	 5 	 	 1321 	 	 1510 	 	 167 
  5 	 	 322 	 	 282 	 	 8 	 	 1920 	 	 2003 	 	 107 
  6 	 	 976 	 	 410 	 	 7 	 	 688 	 	 769 	 	 111 
  7 	 	 388 	 	 200 	 	 10 	 	 2086 	 	 2210 	 	 126 
  8 	 	 929 	 	 298 	 	 7 	 	 1772 	 	 1940 	 	 109 
  9 	 	 430 	 	 505 	 	 7 	 	 2047 	 	 2237 	 	 156 
  10 	 	 626 	 	 248 	 	 9 	 	 783 	 	 860 	 	 139 
  11 	 	 166 	 	 307 	 	 9 	 	 573 	 	 681 	 	 151 
  12 	 	 336 	 	 285 	 	 9 	 	 514 	 	 682 	 	 199 
  13 	 	 311 	 	 193 	 	 5 	 	 627 	 	 749 	 	 132 
  14 	 	 948 	 	 556 	 	 10 	 	 1017 	 	 1122 	 	 173 
  15 	 	 34 	 	 46 	 	 9 	 	 2264 	 	 2321 	 	 179 
  16 	 	 361 	 	 290 	 	 7 	 	 550 	 	 736 	 	 158 
  17 	 	 530 	 	 301 	 	 6 	 	 1812 	 	 2000 	 	 111 
  18 	 	 374 	 	 281 	 	 10 	 	 1151 	 	 1334 	 	 188 
  19 	 	 623 	 	 263 	 	 7 	 	 635 	 	 688 	 	 170 
  20 	 	 420 	 	 125 	 	 7 	 	 2273 	 	 2324 	 	 179 
  21 	 	 414 	 	 213 	 	 9 	 	 1886 	 	 2025 	 	 128 
  22 	 	 320 	 	 141 	 	 9 	 	 819 	 	 949 	 	 153 
  23 	 	 330 	 	 292 	 	 8 	 	 2132 	 	 2206 	 	 186 
  24 	 	 621 	 	 181 	 	 5 	 	 1964 	 	 2119 	 	 110 
  25 	 	 209 	 	 226 	 	 9 	 	 1231 	 	 1373 	 	 171 
  26 	 	 336 	 	 526 	 	 5 	 	 1085 	 	 1210 	 	 105 
  27 	 	 482 	 	 221 	 	 7 	 	 1909 	 	 1964 	 	 180 
  28 	 	 395 	 	 139 	 	 8 	 	 826 	 	 920 	 	 197 
  29 	 	 285 	 	 73 	 	 5 	 	 858 	 	 916 	 	 122 
  30 	 	 995 	 	 442 	 	 8 	 	 1851 	 	 2037 	 	 117 
  31 	 	 535 	 	 84 	 	 10 	 	 693 	 	 861 	 	 141 
  32 	 	 896 	 	 360 	 	 7 	 	 593 	 	 744 	 	 107 
  33 	 	 389 	 	 266 	 	 10 	 	 542 	 	 658 	 	 140 
  34 	 	 384 	 	 310 	 	 9 	 	 2034 	 	 2113 	 	 124 
  35 	 	 322 	 	 237 	 	 8 	 	 2056 	 	 2134 	 	 119 
  36 	 	 605 	 	 280 	 	 7 	 	 2111 	 	 2251 	 	 152 
  37 	 	 327 	 	 231 	 	 7 	 	 646 	 	 705 	 	 123 
  38 	 	 589 	 	 539 	 	 9 	 	 1682 	 	 1808 	 	 152 
  39 	 	 402 	 	 95 	 	 10 	 	 1379 	 	 1510 	 	 174 
  40 	 	 743 	 	 359 	 	 9 	 	 469 	 	 644 	 	 181 
  41 	 	 286 	 	 92 	 	 9 	 	 766 	 	 864 	 	 143 
  42 	 	 313 	 	 149 	 	 10 	 	 889 	 	 1022 	 	 133 
  43 	 	 908 	 	 251 	 	 8 	 	 2229 	 	 2427 	 	 118 
  44 	 	 382 	 	 294 	 	 10 	 	 2252 	 	 2404 	 	 138 
  45 	 	 987 	 	 400 	 	 7 	 	 2261 	 	 2353 	 	 109 
  46 	 	 800 	 	 81 	 	 6 	 	 1866 	 	 1996 	 	 140 
  47 	 	 927 	 	 519 	 	 9 	 	 2237 	 	 2427 	 	 167 
  48 	 	 676 	 	 257 	 	 9 	 	 1633 	 	 1798 	 	 126 
  49 	 	 467 	 	 376 	 	 6 	 	 365 	 	 535 	 	 117 
  50 	 	 660 	 	 333 	 	 6 	 	 555 	 	 667 	 	 125 
  51 	 	 669 	 	 188 	 	 10 	 	 2310 	 	 2427 	 	 171 
  52 	 	 879 	 	 438 	 	 5 	 	 1211 	 	 1303 	 	 155 
  53 	 	 299 	 	 88 	 	 9 	 	 897 	 	 1076 	 	 149 
  54 	 	 268 	 	 265 	 	 8 	 	 1982 	 	 2115 	 	 182 
  55 	 	 678 	 	 109 	 	 10 	 	 1636 	 	 1817 	 	 104 
  56 	 	 504 	 	 252 	 	 7 	 	 554 	 	 674 	 	 175 
  57 	 	 833 	 	 352 	 	 10 	 	 575 	 	 706 	 	 107 
  58 	 	 668 	 	 205 	 	 5 	 	 565 	 	 764 	 	 150 
  59 	 	 592 	 	 332 	 	 9 	 	 2269 	 	 2355 	 	 174 
  60 	 	 639 	 	 444 	 	 10 	 	 434 	 	 508 	 	 101 
  61 	 	 589 	 	 108 	 	 9 	 	 1885 	 	 1989 	 	 149 
  62 	 	 603 	 	 327 	 	 6 	 	 1997 	 	 2156 	 	 166 
  63 	 	 710 	 	 14 	 	 6 	 	 1277 	 	 1410 	 	 185 
  64 	 	 777 	 	 31 	 	 5 	 	 2032 	 	 2099 	 	 157 
  65 	 	 491 	 	 352 	 	 10 	 	 2303 	 	 2427 	 	 176 
  66 	 	 603 	 	 36 	 	 10 	 	 1402 	 	 1550 	 	 123 
  67 	 	 948 	 	 389 	 	 10 	 	 678 	 	 761 	 	 177 
  68 	 	 363 	 	 293 	 	 8 	 	 876 	 	 1056 	 	 124 
  69 	 	 848 	 	 591 	 	 6 	 	 341 	 	 536 	 	 112 
  70 	 	 406 	 	 188 	 	 9 	 	 656 	 	 742 	 	 140 
  71 	 	 1000 	 	 367 	 	 10 	 	 753 	 	 820 	 	 110 
  72 	 	 505 	 	 373 	 	 9 	 	 1641 	 	 1701 	 	 155 
  73 	 	 646 	 	 229 	 	 5 	 	 1296 	 	 1378 	 	 141 
  74 	 	 324 	 	 218 	 	 6 	 	 1657 	 	 1723 	 	 121 
  75 	 	 600 	 	 249 	 	 6 	 	 569 	 	 696 	 	 195 
  76 	 	 943 	 	 484 	 	 9 	 	 953 	 	 1108 	 	 114 
  77 	 	 680 	 	 156 	 	 6 	 	 2220 	 	 2302 	 	 178 
  78 	 	 493 	 	 401 	 	 5 	 	 1947 	 	 2080 	 	 125 
  79 	 	 468 	 	 219 	 	 8 	 	 611 	 	 707 	 	 102 
  80 	 	 422 	 	 327 	 	 9 	 	 965 	 	 1097 	 	 121 
  81 	 	 669 	 	 353 	 	 10 	 	 1258 	 	 1447 	 	 118 
  82 	 	 495 	 	 357 	 	 6 	 	 452 	 	 591 	 	 188 
  83 	 	 400 	 	 294 	 	 5 	 	 626 	 	 702 	 	 143 
  84 	 	 373 	 	 274 	 	 6 	 	 579 	 	 651 	 	 101 
  85 	 	 444 	 	 150 	 	 10 	 	 591 	 	 783 	 	 168 
  86 	 	 723 	 	 163 	 	 9 	 	 1076 	 	 1245 	 	 184 
  87 	 	 427 	 	 246 	 	 8 	 	 593 	 	 677 	 	 164 
  88 	 	 305 	 	 149 	 	 10 	 	 1393 	 	 1458 	 	 136 
  89 	 	 362 	 	 192 	 	 9 	 	 1418 	 	 1494 	 	 115 
  90 	 	 585 	 	 303 	 	 6 	 	 526 	 	 634 	 	 182 
  91 	 	 441 	 	 238 	 	 5 	 	 929 	 	 1072 	 	 169 
  92 	 	 785 	 	 53 	 	 10 	 	 995 	 	 1177 	 	 140 
  93 	 	 488 	 	 358 	 	 5 	 	 1872 	 	 1943 	 	 152 
  94 	 	 628 	 	 352 	 	 7 	 	 1151 	 	 1230 	 	 114 
  95 	 	 394 	 	 254 	 	 5 	 	 1543 	 	 1604 	 	 105 
  96 	 	 315 	 	 68 	 	 5 	 	 822 	 	 884 	 	 187 
  97 	 	 642 	 	 262 	 	 10 	 	 508 	 	 695 	 	 126 
  98 	 	 949 	 	 468 	 	 10 	 	 1326 	 	 1475 	 	 145 
  99 	 	 415 	 	 271 	 	 9 	 	 1873 	 	 1937 	 	 200 
  100 	 	 865 	 	 361 	 	 5 	 	 622 	 	 721 	 	 157 
 